min: c;

c = 3.71167148476875 * u5_t4_h2 + 3.71167148476875 * u5_t7_h2 + 2.85557507785144 * u5_t4_h3 + 2.85557507785144 * u5_t7_h3 + 3.6284778910875 * u5_t1_h4 + 3.6284778910875 * u5_t3_h4 + 3.6284778910875 * u5_t4_h4 + 3.6284778910875 * u5_t7_h4 + 3.25955933157492 * u5_t1_h5 + 3.25955933157492 * u5_t3_h5 + 3.25955933157492 * u5_t4_h5 + 3.25955933157492 * u5_t7_h5 + 3.65580697351066 * u5_t1_h6 + 3.65580697351066 * u5_t3_h6 + 3.65580697351066 * u5_t4_h6 + 3.65580697351066 * u5_t6_h6 + 3.65580697351066 * u5_t7_h6 + 4.03997505743875 * u5_t1_h7 + 4.03997505743875 * u5_t3_h7 + 4.03997505743875 * u5_t4_h7 + 4.03997505743875 * u5_t6_h7 + 5.78200708237994 * u5_t1_h8 + 5.78200708237994 * u5_t3_h8 + 5.78200708237994 * u5_t4_h8 + 5.78200708237994 * u5_t6_h8 + 4.5195735669219 * u5_t1_h9 + 4.5195735669219 * u5_t3_h9 + 4.5195735669219 * u5_t4_h9 + 4.5195735669219 * u5_t6_h9 + 5.87467272789969 * u5_t1_h10 + 5.87467272789969 * u5_t3_h10 + 5.87467272789969 * u5_t4_h10 + 5.87467272789969 * u5_t6_h10 + 4.23421487277965 * u5_t1_h11 + 4.23421487277965 * u5_t3_h11 + 4.23421487277965 * u5_t4_h11 + 4.23421487277965 * u5_t6_h11 + 5.78214568118539 * u5_t1_h12 + 5.78214568118539 * u5_t3_h12 + 5.78214568118539 * u5_t4_h12 + 5.78214568118539 * u5_t6_h12 + 4.08040834897188 * u5_t1_h13 + 4.08040834897188 * u5_t3_h13 + 4.08040834897188 * u5_t4_h13 + 4.08040834897188 * u5_t6_h13 + 4.08040834897188 * u5_t8_h13 + 5.3294951095193 * u5_t1_h14 + 5.3294951095193 * u5_t3_h14 + 5.3294951095193 * u5_t4_h14 + 5.3294951095193 * u5_t6_h14 + 5.3294951095193 * u5_t8_h14 + 6.63399989722173 * u5_t1_h15 + 6.63399989722173 * u5_t3_h15 + 6.63399989722173 * u5_t4_h15 + 6.63399989722173 * u5_t6_h15 + 6.63399989722173 * u5_t8_h15 + 6.63399989722173 * u5_t9_h15 + 5.95938014570468 * u5_t1_h16 + 5.95938014570468 * u5_t3_h16 + 5.95938014570468 * u5_t4_h16 + 5.95938014570468 * u5_t5_h16 + 5.95938014570468 * u5_t6_h16 + 5.95938014570468 * u5_t8_h16 + 5.95938014570468 * u5_t9_h16 + 6.67148994651973 * u5_t1_h17 + 6.67148994651973 * u5_t5_h17 + 6.67148994651973 * u5_t6_h17 + 6.67148994651973 * u5_t8_h17 + 6.67148994651973 * u5_t9_h17 + 6.67148994651973 * u5_t10_h17 + 6.89190265563253 * u5_t1_h18 + 6.89190265563253 * u5_t2_h18 + 6.89190265563253 * u5_t5_h18 + 6.89190265563253 * u5_t6_h18 + 6.89190265563253 * u5_t9_h18 + 6.89190265563253 * u5_t10_h18 + 5.7594990002889 * u5_t1_h19 + 5.7594990002889 * u5_t2_h19 + 5.7594990002889 * u5_t5_h19 + 5.7594990002889 * u5_t9_h19 + 5.7594990002889 * u5_t10_h19 + 5.67961350386613 * u5_t1_h20 + 5.67961350386613 * u5_t2_h20 + 5.67961350386613 * u5_t5_h20 + 5.67961350386613 * u5_t9_h20 + 5.67961350386613 * u5_t10_h20 + 5.37976538528396 * u5_t2_h21 + 5.37976538528396 * u5_t5_h21 + 5.37976538528396 * u5_t9_h21 + 5.37976538528396 * u5_t10_h21 + 6.00384698407837 * u5_t2_h22 + 6.00384698407837 * u5_t5_h22 + 6.00384698407837 * u5_t9_h22 + 6.00384698407837 * u5_t10_h22 + 5.1866562335595 * u5_t5_h23 + 5.1866562335595 * u5_t9_h23 + 5.1866562335595 * u5_t10_h23;
0 <= u5_t1_h4 <= 1;
0 <= u5_t1_h5 <= 1;
0 <= u5_t1_h6 <= 1;
0 <= u5_t1_h7 <= 1;
0 <= u5_t1_h8 <= 1;
0 <= u5_t1_h9 <= 1;
0 <= u5_t1_h10 <= 1;
0 <= u5_t1_h11 <= 1;
0 <= u5_t1_h12 <= 1;
0 <= u5_t1_h13 <= 1;
0 <= u5_t1_h14 <= 1;
0 <= u5_t1_h15 <= 1;
0 <= u5_t1_h16 <= 1;
0 <= u5_t1_h17 <= 1;
0 <= u5_t1_h18 <= 1;
0 <= u5_t1_h19 <= 1;
0 <= u5_t1_h20 <= 1;
u5_t1_h4 + u5_t1_h5 + u5_t1_h6 + u5_t1_h7 + u5_t1_h8 + u5_t1_h9 + u5_t1_h10 + u5_t1_h11 + u5_t1_h12 + u5_t1_h13 + u5_t1_h14 + u5_t1_h15 + u5_t1_h16 + u5_t1_h17 + u5_t1_h18 + u5_t1_h19 + u5_t1_h20 = 1;
0 <= u5_t2_h18 <= 1;
0 <= u5_t2_h19 <= 1;
0 <= u5_t2_h20 <= 1;
0 <= u5_t2_h21 <= 1;
0 <= u5_t2_h22 <= 1;
u5_t2_h18 + u5_t2_h19 + u5_t2_h20 + u5_t2_h21 + u5_t2_h22 = 3;
0 <= u5_t3_h4 <= 1;
0 <= u5_t3_h5 <= 1;
0 <= u5_t3_h6 <= 1;
0 <= u5_t3_h7 <= 1;
0 <= u5_t3_h8 <= 1;
0 <= u5_t3_h9 <= 1;
0 <= u5_t3_h10 <= 1;
0 <= u5_t3_h11 <= 1;
0 <= u5_t3_h12 <= 1;
0 <= u5_t3_h13 <= 1;
0 <= u5_t3_h14 <= 1;
0 <= u5_t3_h15 <= 1;
0 <= u5_t3_h16 <= 1;
u5_t3_h4 + u5_t3_h5 + u5_t3_h6 + u5_t3_h7 + u5_t3_h8 + u5_t3_h9 + u5_t3_h10 + u5_t3_h11 + u5_t3_h12 + u5_t3_h13 + u5_t3_h14 + u5_t3_h15 + u5_t3_h16 = 1;
0 <= u5_t4_h2 <= 1;
0 <= u5_t4_h3 <= 1;
0 <= u5_t4_h4 <= 1;
0 <= u5_t4_h5 <= 1;
0 <= u5_t4_h6 <= 1;
0 <= u5_t4_h7 <= 1;
0 <= u5_t4_h8 <= 1;
0 <= u5_t4_h9 <= 1;
0 <= u5_t4_h10 <= 1;
0 <= u5_t4_h11 <= 1;
0 <= u5_t4_h12 <= 1;
0 <= u5_t4_h13 <= 1;
0 <= u5_t4_h14 <= 1;
0 <= u5_t4_h15 <= 1;
0 <= u5_t4_h16 <= 1;
u5_t4_h2 + u5_t4_h3 + u5_t4_h4 + u5_t4_h5 + u5_t4_h6 + u5_t4_h7 + u5_t4_h8 + u5_t4_h9 + u5_t4_h10 + u5_t4_h11 + u5_t4_h12 + u5_t4_h13 + u5_t4_h14 + u5_t4_h15 + u5_t4_h16 = 3;
0 <= u5_t5_h16 <= 1;
0 <= u5_t5_h17 <= 1;
0 <= u5_t5_h18 <= 1;
0 <= u5_t5_h19 <= 1;
0 <= u5_t5_h20 <= 1;
0 <= u5_t5_h21 <= 1;
0 <= u5_t5_h22 <= 1;
0 <= u5_t5_h23 <= 1;
u5_t5_h16 + u5_t5_h17 + u5_t5_h18 + u5_t5_h19 + u5_t5_h20 + u5_t5_h21 + u5_t5_h22 + u5_t5_h23 = 2;
0 <= u5_t6_h6 <= 1;
0 <= u5_t6_h7 <= 1;
0 <= u5_t6_h8 <= 1;
0 <= u5_t6_h9 <= 1;
0 <= u5_t6_h10 <= 1;
0 <= u5_t6_h11 <= 1;
0 <= u5_t6_h12 <= 1;
0 <= u5_t6_h13 <= 1;
0 <= u5_t6_h14 <= 1;
0 <= u5_t6_h15 <= 1;
0 <= u5_t6_h16 <= 1;
0 <= u5_t6_h17 <= 1;
0 <= u5_t6_h18 <= 1;
u5_t6_h6 + u5_t6_h7 + u5_t6_h8 + u5_t6_h9 + u5_t6_h10 + u5_t6_h11 + u5_t6_h12 + u5_t6_h13 + u5_t6_h14 + u5_t6_h15 + u5_t6_h16 + u5_t6_h17 + u5_t6_h18 = 2;
0 <= u5_t7_h2 <= 1;
0 <= u5_t7_h3 <= 1;
0 <= u5_t7_h4 <= 1;
0 <= u5_t7_h5 <= 1;
0 <= u5_t7_h6 <= 1;
u5_t7_h2 + u5_t7_h3 + u5_t7_h4 + u5_t7_h5 + u5_t7_h6 = 1;
0 <= u5_t8_h13 <= 1;
0 <= u5_t8_h14 <= 1;
0 <= u5_t8_h15 <= 1;
0 <= u5_t8_h16 <= 1;
0 <= u5_t8_h17 <= 1;
u5_t8_h13 + u5_t8_h14 + u5_t8_h15 + u5_t8_h16 + u5_t8_h17 = 3;
0 <= u5_t9_h15 <= 1;
0 <= u5_t9_h16 <= 1;
0 <= u5_t9_h17 <= 1;
0 <= u5_t9_h18 <= 1;
0 <= u5_t9_h19 <= 1;
0 <= u5_t9_h20 <= 1;
0 <= u5_t9_h21 <= 1;
0 <= u5_t9_h22 <= 1;
0 <= u5_t9_h23 <= 1;
u5_t9_h15 + u5_t9_h16 + u5_t9_h17 + u5_t9_h18 + u5_t9_h19 + u5_t9_h20 + u5_t9_h21 + u5_t9_h22 + u5_t9_h23 = 1;
0 <= u5_t10_h17 <= 1;
0 <= u5_t10_h18 <= 1;
0 <= u5_t10_h19 <= 1;
0 <= u5_t10_h20 <= 1;
0 <= u5_t10_h21 <= 1;
0 <= u5_t10_h22 <= 1;
0 <= u5_t10_h23 <= 1;
u5_t10_h17 + u5_t10_h18 + u5_t10_h19 + u5_t10_h20 + u5_t10_h21 + u5_t10_h22 + u5_t10_h23 = 1;
